; benchmark generated from python API
(set-info :status unknown)
(declare-fun x_month () Int)
(declare-fun x_day () Int)
(declare-fun x_year () Int)
(declare-fun y_month () Int)
(declare-fun y_day () Int)
(declare-fun y_year () Int)
(assert
 (>= x_month 1))
(assert
 (<= x_month 12))
(assert
 (>= x_day 1))
(assert
 (<= x_day 31))
(assert
 (let (($x725 (<= x_day 28)))
 (let (($x802 (<= x_day 29)))
 (let (($x348 (= (mod x_year 400) 0)))
 (let (($x887 (= (mod x_year 4) 0)))
 (let (($x391 (ite (or (and $x887 (and (distinct (mod x_year 100) 0) true)) $x348) $x802 $x725)))
 (let (($x797 (= x_month 2)))
 (ite $x797 $x391 true))))))))
(assert
 (let (($x376 (<= x_day 30)))
 (let (($x520 (or (= x_month 4) (= x_month 6) (= x_month 9) (= x_month 11))))
 (ite $x520 $x376 true))))
(assert
 (>= y_month 1))
(assert
 (<= y_month 12))
(assert
 (>= y_day 1))
(assert
 (<= y_day 31))
(assert
 (let (($x930 (<= y_day 28)))
 (let (($x966 (<= y_day 29)))
 (let (($x607 (= (mod y_year 400) 0)))
 (let (($x242 (= (mod y_year 4) 0)))
 (let (($x874 (ite (or (and $x242 (and (distinct (mod y_year 100) 0) true)) $x607) $x966 $x930)))
 (let (($x671 (= y_month 2)))
 (ite $x671 $x874 true))))))))
(assert
 (let (($x694 (<= y_day 30)))
 (let (($x232 (= y_month 4)))
 (let (($x686 (or $x232 (= y_month 6) (= y_month 9) (= y_month 11))))
 (ite $x686 $x694 true)))))
(assert
 (let (($x815 (= x_day 31)))
 (let (($x974 (= x_month 1)))
 (let (($x977 (= x_year 2023)))
 (and $x977 $x974 $x815)))))
(assert
 (let ((?x896 (+ (mod (- (+ x_month (+ (* 0 12) 3)) 1) 12) 1)))
 (let ((?x407 (ite (or (= ?x896 4) (= ?x896 6) (= ?x896 9) (= ?x896 11)) 30 31)))
 (let ((?x868 (+ 0 (div (- (+ x_month (+ (* 0 12) 3)) 1) 12))))
 (let ((?x763 (+ x_year ?x868)))
 (let (($x237 (or (and (= (mod ?x763 4) 0) (and (distinct (mod ?x763 100) 0) true)) (= (mod ?x763 400) 0))))
 (let ((?x905 (ite (= ?x896 2) (ite $x237 29 28) ?x407)))
 (let ((?x504 (ite (< x_day 1) 1 (ite (> x_day ?x905) ?x905 x_day))))
 (let ((?x767 (ite (< ?x504 1) 1 (ite (> ?x504 ?x905) ?x905 ?x504))))
 (let ((?x957 (ite (= 2 ?x896) (ite $x237 31 31) (ite (= 1 ?x896) (ite $x237 0 0) 0))))
 (let ((?x360 (ite (= 4 ?x896) (ite $x237 91 90) (ite (= 3 ?x896) (ite $x237 60 59) ?x957))))
 (let ((?x310 (ite (= 6 ?x896) (ite $x237 152 151) (ite (= 5 ?x896) (ite $x237 121 120) ?x360))))
 (let ((?x911 (ite (= 8 ?x896) (ite $x237 213 212) (ite (= 7 ?x896) (ite $x237 182 181) ?x310))))
 (let ((?x751 (ite (= 10 ?x896) (ite $x237 274 273) (ite (= 9 ?x896) (ite $x237 244 243) ?x911))))
 (let ((?x927 (ite (= 12 ?x896) (ite $x237 335 334) (ite (= 11 ?x896) (ite $x237 305 304) ?x751))))
 (let ((?x904 (- (+ (* 365 (- ?x763 1)) (div (- ?x763 1) 4)) (div (- ?x763 1) 100))))
 (let ((?x973 (- (+ (+ (+ ?x904 (div (- ?x763 1) 400)) ?x927) (- ?x767 1)) 730179)))
 (let ((?x967 (+ (+ ?x973 0) 730179)))
 (let ((?x969 (mod ?x967 146097)))
 (let ((?x801 (div ?x969 36524)))
 (let ((?x809 (ite (<= 4 ?x801) 3 ?x801)))
 (let ((?x955 (- ?x969 (* ?x809 36524))))
 (let ((?x869 (mod ?x955 1461)))
 (let ((?x753 (div ?x869 365)))
 (let ((?x870 (ite (<= 4 ?x753) 3 ?x753)))
 (let ((?x489 (+ (+ (* (div ?x967 146097) 400) (* ?x809 100)) (* (div ?x955 1461) 4))))
 (let ((?x634 (+ (+ ?x489 ?x870) 1)))
 (let (($x631 (or (and (= (mod ?x634 4) 0) (and (distinct (mod ?x634 100) 0) true)) (= (mod ?x634 400) 0))))
 (let ((?x929 (- ?x869 (* ?x870 365))))
 (let ((?x635 (ite $x631 31 31)))
 (let (($x588 (>= ?x929 ?x635)))
 (let ((?x521 (ite $x588 (+ (- ?x929 ?x635) 1) (+ (- ?x929 (ite $x631 0 0)) 1))))
 (let ((?x328 (ite $x631 60 59)))
 (let (($x600 (>= ?x929 ?x328)))
 (let ((?x637 (ite $x631 91 90)))
 (let (($x590 (>= ?x929 ?x637)))
 (let ((?x422 (ite $x590 (+ (- ?x929 ?x637) 1) (ite $x600 (+ (- ?x929 ?x328) 1) ?x521))))
 (let ((?x685 (ite $x631 121 120)))
 (let (($x418 (>= ?x929 ?x685)))
 (let ((?x681 (ite $x631 152 151)))
 (let (($x653 (>= ?x929 ?x681)))
 (let ((?x604 (ite $x653 (+ (- ?x929 ?x681) 1) (ite $x418 (+ (- ?x929 ?x685) 1) ?x422))))
 (let ((?x682 (ite $x631 182 181)))
 (let (($x385 (>= ?x929 ?x682)))
 (let ((?x654 (ite $x631 213 212)))
 (let (($x656 (>= ?x929 ?x654)))
 (let ((?x606 (ite $x656 (+ (- ?x929 ?x654) 1) (ite $x385 (+ (- ?x929 ?x682) 1) ?x604))))
 (let ((?x664 (ite $x631 244 243)))
 (let (($x514 (>= ?x929 ?x664)))
 (let ((?x675 (ite $x631 274 273)))
 (let (($x533 (>= ?x929 ?x675)))
 (let ((?x545 (ite $x533 (+ (- ?x929 ?x675) 1) (ite $x514 (+ (- ?x929 ?x664) 1) ?x606))))
 (let ((?x679 (ite $x631 305 304)))
 (let (($x537 (>= ?x929 ?x679)))
 (let ((?x652 (ite $x631 335 334)))
 (let (($x302 (>= ?x929 ?x652)))
 (let ((?x663 (ite $x302 (+ (- ?x929 ?x652) 1) (ite $x537 (+ (- ?x929 ?x679) 1) ?x545))))
 (let (($x776 (= 0 0)))
 (let ((?x429 (ite $x418 5 (ite $x590 4 (ite $x600 3 (ite $x588 2 1))))))
 (let ((?x531 (ite $x514 9 (ite $x656 8 (ite $x385 7 (ite $x653 6 ?x429))))))
 (let (($x696 (= y_month (ite $x776 ?x896 (ite $x302 12 (ite $x537 11 (ite $x533 10 ?x531)))))))
 (and (= y_year (ite $x776 ?x763 ?x634)) $x696 (= y_day (ite $x776 ?x767 ?x663))))))))))))))))))))))))))))))))))))))))))))))))))))))))))))))))
(assert
 (let (($x433 (= y_day 30)))
(let (($x232 (= y_month 4)))
(let (($x455 (= y_year 2023)))
(and $x455 $x232 $x433)))))
(check-sat)
